clingo version 5.2.2
Reading from ...pr180_u540_o12_N010_encoding-a_minR.lp ...
Solving...
Solving...
Solving...
Solving...
Solving...
Solving...
Solving...
Solving...
Solving...
Solving...
Solving...
Solving...
Solving...
Solving...
Solving...
Solving...
Solving...
Solving...
Solving...
Solving...
Solving...
Solving...
Solving...
Solving...
Solving...
Solving...
Solving...
Solving...
Solving...
Solving...
Solving...
Solving...
Solving...
Solving...
Solving...
Solving...
Solving...
Solving...
Solving...
Solving...
Solving...
Solving...
Solving...
Solving...
Solving...
Solving...
Solving...
Solving...
Solving...
Solving...
Solving...
Solving...
Solving...
Solving...
Solving...
Solving...
Solving...
Solving...
Solving...
Solving...
Solving...
Solving...
Solving...
Solving...
Solving...
Solving...
Solving...
Solving...
Solving...
Solving...
Solving...
Solving...
Solving...
Solving...
Solving...
Solving...
Solving...
Solving...
Solving...
Solving...
Solving...
Solving...
Solving...
Solving...
Solving...
Solving...
Solving...
Solving...
Solving...
Solving...
Solving...
Solving...
Solving...
Solving...
Solving...
Solving...
Solving...
Solving...
Solving...
Solving...
Solving...
Solving...
Solving...
Solving...
Solving...
Solving...
Solving...
Solving...
Solving...
Solving...
Solving...
Solving...
Solving...
Solving...
Solving...
Solving...
Solving...
Solving...
Solving...
Solving...
Solving...
Solving...
Solving...
Solving...
Solving...
Solving...
Solving...
Solving...
Solving...
Solving...
Solving...
Solving...
Solving...
Solving...
Solving...
Solving...
Solving...
Solving...
Solving...
Solving...
Solving...
Solving...
Solving...
Solving...
Solving...
Solving...
Solving...
Solving...
Solving...
Solving...
Solving...
Solving...
Solving...
Solving...
Solving...
Solving...
Solving...
Solving...
Solving...
Solving...
Solving...
Solving...
Solving...
Solving...
Solving...
Solving...
Solving...
Solving...
Solving...
Solving...
Solving...
Solving...
Solving...
Solving...
Solving...
Solving...
Solving...
Solving...
Solving...
Solving...
Solving...
Solving...
Solving...
Solving...
Solving...
Solving...
Solving...
Solving...
Solving...
Solving...
Solving...
Solving...
Solving...
Solving...
Solving...
Solving...
Solving...
Solving...
Solving...
Solving...
UNKNOWN

TIME LIMIT   : 1
Models       : 0+
Calls        : 201
Time         : 1799.984s (Solving: 622.20s 1st Model: 0.00s Unsat: 622.20s)
CPU Time     : 1089.352s

Choices      : 218718  
Conflicts    : 148977   (Analyzed: 148795)
Restarts     : 763      (Average: 195.01 Last: 779)
Problems     : 202      (Average Length: 2.00 Splits: 0)
Lemmas       : 148795   (Deleted: 103439)
  Binary     : 2064     (Ratio:   1.39%)
  Ternary    : 4360     (Ratio:   2.93%)
  Conflict   : 148795   (Average Length:   67.6 Ratio: 100.00%) 
  Loop       : 0        (Average Length:    0.0 Ratio:   0.00%) 
  Other      : 0        (Average Length:    0.0 Ratio:   0.00%) 
Backjumps    : 148795   (Average:  1.46 Max: 145 Sum: 217522)
  Executed   : 147950   (Average:  1.46 Max: 145 Sum: 216619 Ratio:  99.58%)
  Bounded    : 845      (Average:  1.07 Max:   2 Sum:    903 Ratio:   0.42%)

Rules        : 16396771 (Original: 11080609)
  Choice     : 1393    
Atoms        : 9126001  (Original: 7294442 Auxiliary: 1831559)
Bodies       : 11849413 (Original: 8477281)
  Count      : 11353    (Original: 64221)
Equivalences : 17008621 (Atom=Atom: 5257627 Body=Body: 60992 Other: 11690002)
Tight        : Yes
Variables    : 3776964  (Eliminated:    0 Frozen: 57544)
Constraints  : 12983564 (Binary:  70.9% Ternary:  28.4% Other:   0.7%)

